     Program PWSCF v.5.2.0 starts on 11Dec2015 at 18:57:59

     Current dimensions of program PWSCF are:
     Max number of different atomic species (ntypx) = 10
     Max number of k-points (npk) =  40000
     Max angular momentum in pseudopotentials (lmaxx) =  3

     IMPORTANT: XC functional enforced from input :
     Exchange-correlation      = LDA ( 1  1  0  0 0 0)
     Any further DFT definition will be discarded
     Please, verify this is what you really want

               file Ni.pz-nd-rrkjus.UPF: wavefunction(s)  4S renormalized

     Subspace diagonalization in iterative solution of the eigenvalue problem:
     a serial algorithm will be used

     bravais-lattice index     =            0
     lattice parameter (alat)  =      12.1600  a.u.
     unit-cell volume          =    3922.1177 (a.u.)^3
     number of atoms/cell      =           15
     number of atomic types    =            2
     number of electrons       =       166.00
     number of Kohn-Sham states=          100
     kinetic-energy cutoff     =      40.0000  Ry
     charge density cutoff     =     120.0000  Ry
     convergence threshold     =      1.0E-06
     mixing beta               =       0.7000
     number of iterations used =            8  plain     mixing
     Exchange-correlation      = LDA ( 1  1  0  0 0 0)

     celldm(1)=  12.160010  celldm(2)=   0.000000  celldm(3)=   0.000000
     celldm(4)=   0.000000  celldm(5)=   0.000000  celldm(6)=   0.000000

     crystal axes: (cart. coord. in units of alat)
               a(1) = (   1.000000   0.000000   0.000000 )
               a(2) = (  -0.500000   0.866025   0.000000 )
               a(3) = (   0.000000   0.000000   2.518768 )

     reciprocal axes: (cart. coord. in units 2 pi/alat)
               b(1) = (  1.000000  0.577350 -0.000000 )
               b(2) = (  0.000000  1.154701  0.000000 )
               b(3) = (  0.000000 -0.000000  0.397019 )

     PseudoPot. # 1 for Ni read from file:
     /home/mc7/quantum-expresso/espresso-5.2.1/pseudo/Ni.pz-nd-rrkjus.UPF
     MD5 check sum: bf64e4f20c74808dea28321d1ca350c3
     Pseudo is Ultrasoft + core correction, Zval = 10.0
     Generated by new atomic code, or converted to UPF format
     Using radial grid of 1203 points,  6 beta functions with:
                l(1) =   0
                l(2) =   0
                l(3) =   1
                l(4) =   1
                l(5) =   2
                l(6) =   2
     Q(r) pseudized with 0 coefficients

     PseudoPot. # 2 for Zr read from file:
     /home/mc7/quantum-expresso/espresso-5.2.1/pseudo/Zr.blyp-sp-hgh.UPF
     MD5 check sum: a52b0bda28b99d43395ef1dd0d020438
     Pseudo is Norm-conserving, Zval = 12.0
     Generated in analytical, separable form
     Using radial grid of 1225 points,  6 beta functions with:
                l(1) =   0
                l(2) =   0
                l(3) =   1
                l(4) =   1
                l(5) =   2
                l(6) =   2

     atomic species   valence    mass     pseudopotential
        Ni            10.00    58.69340     Ni( 1.00)
        Zr            12.00    91.22400     Zr( 1.00)

     No symmetry found

   Cartesian axes

     site n.     atom                  positions (alat units)
         1           Zr  tau(   1) = (   0.2511034   0.1449746   0.1999868  )
         2           Zr  tau(   2) = (   0.7511034   0.1449746   0.1999868  )
         3           Zr  tau(   3) = (   0.0011034   0.5779873   0.1999868  )
         4           Zr  tau(   4) = (   0.5011034   0.5779873   0.1999868  )
         5           Ni  tau(   5) = (   0.0011034   0.2880381   0.5999604  )
         6           Zr  tau(   6) = (   0.5011034   0.2880381   0.5999604  )
         7           Zr  tau(   7) = (  -0.2488966   0.7210508   0.5999604  )
         8           Ni  tau(   8) = (   0.2511034   0.7210508   0.5999604  )
         9           Ni  tau(   9) = (  -0.0000028   0.0000025   0.9424573  )
        10           Ni  tau(  10) = (   0.3571401   0.1237204   0.9424573  )
        11           Zr  tau(  11) = (   0.7142829   0.2474383   0.9424573  )
        12           Zr  tau(  12) = (   0.0714258   0.3711562   0.9424573  )
        13           Ni  tau(  13) = (   0.4285686   0.4948741   0.9424573  )
        14           Ni  tau(  14) = (  -0.2142885   0.6185921   0.9424573  )
        15           Ni  tau(  15) = (   0.1428543   0.7423100   0.9424573  )

     number of k points=    36  gaussian smearing, width (Ry)=  0.0020
                       cart. coord. in units 2pi/alat
        k(    1) = (   0.0000000   0.0000000   0.0000000), wk =   0.0312500
        k(    2) = (   0.0000000   0.0000000   0.0992549), wk =   0.0625000
        k(    3) = (   0.0000000   0.0000000  -0.1985097), wk =   0.0312500
        k(    4) = (   0.0000000   0.2886751   0.0000000), wk =   0.0625000
        k(    5) = (   0.0000000   0.2886751   0.0992549), wk =   0.0625000
        k(    6) = (   0.0000000   0.2886751  -0.1985097), wk =   0.0625000
        k(    7) = (   0.0000000  -0.5773503   0.0000000), wk =   0.0312500
        k(    8) = (   0.0000000  -0.5773503   0.0992549), wk =   0.0625000
        k(    9) = (   0.0000000  -0.5773503  -0.1985097), wk =   0.0312500
        k(   10) = (   0.2500000   0.4330127   0.0000000), wk =   0.0625000
        k(   11) = (   0.2500000   0.4330127   0.0992549), wk =   0.0625000
        k(   12) = (   0.2500000   0.4330127  -0.1985097), wk =   0.0625000
        k(   13) = (  -0.2500000   0.1443376   0.0000000), wk =   0.0625000
        k(   14) = (   0.2500000   0.1443376   0.0000000), wk =   0.0625000
        k(   15) = (   0.0000000  -0.2886751   0.0992549), wk =   0.0625000
        k(   16) = (  -0.2500000   0.1443376   0.0992549), wk =   0.0625000
        k(   17) = (   0.2500000   0.1443376   0.0992549), wk =   0.0625000
        k(   18) = (  -0.2500000  -0.1443376   0.0992549), wk =   0.0625000
        k(   19) = (   0.2500000  -0.1443376   0.0992549), wk =   0.0625000
        k(   20) = (  -0.2500000   0.1443376  -0.1985097), wk =   0.0625000
        k(   21) = (   0.2500000   0.1443376  -0.1985097), wk =   0.0625000
        k(   22) = (   0.5000000  -0.2886751   0.0000000), wk =   0.0312500
        k(   23) = (  -0.5000000  -0.2886751   0.0000000), wk =   0.0312500
        k(   24) = (   0.5000000  -0.2886751   0.0992549), wk =   0.0625000
        k(   25) = (  -0.5000000  -0.2886751   0.0992549), wk =   0.0625000
        k(   26) = (   0.5000000  -0.2886751  -0.1985097), wk =   0.0312500
        k(   27) = (  -0.5000000  -0.2886751  -0.1985097), wk =   0.0312500
        k(   28) = (  -0.2500000   0.4330127   0.0000000), wk =   0.0625000
        k(   29) = (   0.5000000   0.0000000   0.0000000), wk =   0.0625000
        k(   30) = (  -0.2500000  -0.4330127   0.0992549), wk =   0.0625000
        k(   31) = (  -0.2500000   0.4330127  -0.0992549), wk =   0.0625000
        k(   32) = (   0.2500000  -0.4330127  -0.0992549), wk =   0.0625000
        k(   33) = (   0.5000000   0.0000000   0.0992549), wk =   0.0625000
        k(   34) = (  -0.5000000   0.0000000   0.0992549), wk =   0.0625000
        k(   35) = (  -0.2500000   0.4330127   0.1985097), wk =   0.0625000
        k(   36) = (   0.5000000   0.0000000  -0.1985097), wk =   0.0625000

     Largest allocated arrays     est. size (Mb)     dimensions
     Largest temporary arrays     est. size (Mb)     dimensions

     Check: negative/imaginary core charge=   -0.000143    0.000000

     Initial potential from superposition of free atoms
     Check: negative starting charge=   -0.293466

     starting charge  165.97807, renormalised to  166.00000

     negative rho (up, down):  2.935E-01 0.000E+00
     Starting wfc are  146 randomized atomic wfcs

     Self-consistent Calculation

     iteration #  1     ecut=    40.00 Ry     beta=0.70
     Davidson diagonalization with overlap
     ethr =  1.00E-02,  avg # of iterations =  2.1

     negative rho (up, down):  2.681E-01 0.000E+00

     total energy              =   -1329.36182151 Ry
     Harris-Foulkes estimate   =   -1351.52770691 Ry
     estimated scf accuracy    <      25.87496561 Ry

[...]

     total energy              =   -1350.05066984 Ry
     Harris-Foulkes estimate   =   -1350.05067053 Ry
     estimated scf accuracy    <       0.00000542 Ry

     iteration # 35     ecut=    40.00 Ry     beta=0.70
     Davidson diagonalization with overlap
     ethr =  8.73E-10,  avg # of iterations =  2.0

     negative rho (up, down):  3.071E-01 0.000E+00

     End of self-consistent calculation

          k = 0.0000 0.0000 0.0000 ( 16765 PWs)   bands (ev):

   -45.6277 -45.5786 -45.4773 -45.3992 -45.3582 -45.2260 -45.0747 -44.6702
   -24.2020 -23.6335 -23.6244 -23.6051 -23.5330 -23.4667 -23.4209 -23.3893
   -23.2847 -23.1572 -23.1042 -23.0680 -23.0590 -23.0363 -22.9938 -22.9566
   -22.9069 -22.8316 -22.8266 -22.8122 -22.7455 -22.6004 -22.2284 -21.7794
    -2.5409  -0.7759  -0.1732   0.0041   0.1902   0.3284   0.3806   0.5238
     0.6937   0.7076   0.7550   0.8024   0.9175   0.9520   0.9619   1.3279
     1.4591   1.5559   1.6404   1.6717   1.7256   1.7855   1.8169   1.9228
     1.9409   1.9735   2.0778   2.1283   2.1855   2.2292   2.3367   2.3819
     2.4333   2.5240   2.5724   2.6086   2.6646   2.7108   2.7831   2.8419
     2.8621   2.9490   3.0710   3.1896   3.2562   3.2582   3.3662   3.3852
     3.5862   3.6942   3.7791   4.0481   4.1148   4.1977   4.5206   4.6040
     4.7014   4.8272   4.9321   4.9522   5.0683   5.4611   5.5152   5.6863
     5.8161   5.8650   6.0070   6.1715

[...]

          k =-0.2500 0.1443 0.0000 ( 16737 PWs)   bands (ev):

[...]

          k =-0.2500 0.4330 0.1985 ( 16766 PWs)   bands (ev):

[...]

          k = 0.5000 0.0000-0.1985 ( 16766 PWs)   bands (ev):

   -45.6147 -45.5870 -45.4777 -45.4010 -45.3647 -45.2229 -45.0815 -44.6699
   -24.1786 -23.5643 -23.5095 -23.4778 -23.4487 -23.4024 -23.3782 -23.3519
   -23.3117 -23.2185 -23.1662 -23.1363 -23.1010 -23.0717 -23.0239 -22.9984
   -22.9758 -22.8975 -22.8666 -22.8234 -22.8023 -22.6007 -22.2344 -21.7930
    -1.5542  -0.8693  -0.3801  -0.1598   0.0559   0.2875   0.4575   0.5655
     0.5769   0.7330   0.8734   1.0236   1.0728   1.1760   1.3968   1.4509
     1.5663   1.6353   1.6940   1.7517   1.8048   1.8305   1.9008   1.9558
     2.0085   2.0760   2.1406   2.1920   2.2198   2.2717   2.3289   2.3729
     2.4339   2.5227   2.5661   2.6403   2.7189   2.7916   2.8562   2.9354
     2.9871   3.0075   3.0977   3.1603   3.2234   3.4195   3.4407   3.5035
     3.5762   3.7194   3.7757   3.8520   3.8962   3.9969   4.0799   4.2413
     4.3185   4.3614   4.5950   4.6333   4.7153   4.8913   5.0268   5.2335
     5.4161   5.5307   5.6781   5.8681

     the Fermi energy is     3.8444 ev

!    total energy              =   -1350.05066973 Ry
     Harris-Foulkes estimate   =   -1350.05067021 Ry
     estimated scf accuracy    <       0.00000050 Ry

     The total energy is the sum of the following terms:

     one-electron contribution =   -4695.96278943 Ry
     hartree contribution      =    2416.87909677 Ry
     xc contribution           =    -299.98430325 Ry
     ewald contribution        =    1229.01819362 Ry
     smearing contrib. (-TS)   =      -0.00086744 Ry

     convergence has been achieved in  35 iterations

     Writing output data file calc.save

     General routines

     Parallel routines

   This run was terminated on:  20:11:21  11Dec2015

   JOB DONE.