     Program PWSCF v.5.2.0 starts on 13Dec2015 at 12:36:34

     Current dimensions of program PWSCF are:
     Max number of different atomic species (ntypx) = 10
     Max number of k-points (npk) =  40000
     Max angular momentum in pseudopotentials (lmaxx) =  3

     Atomic positions and unit cell read from directory:
     /home/mc7/quantum-expresso/Zr_Pt2_Ni/calc.save/

     IMPORTANT: XC functional enforced from input :
     Exchange-correlation      = LDA ( 1  1  0  0 0 0)
     Any further DFT definition will be discarded
     Please, verify this is what you really want

               file Ni.pz-nd-rrkjus.UPF: wavefunction(s)  4S renormalized

     Subspace diagonalization in iterative solution of the eigenvalue problem:
     a serial algorithm will be used

     bravais-lattice index     =            0
     lattice parameter (alat)  =      12.1600  a.u.
     unit-cell volume          =    3922.1177 (a.u.)^3
     number of atoms/cell      =           15
     number of atomic types    =            3
     number of electrons       =       162.00
     number of Kohn-Sham states=           97
     kinetic-energy cutoff     =      40.0000  Ry
     charge density cutoff     =     120.0000  Ry
     convergence threshold     =      1.0E-06
     mixing beta               =       0.7000
     number of iterations used =            8  plain     mixing
     Exchange-correlation      = LDA ( 1  1  0  0 0 0)

     celldm(1)=  12.160010  celldm(2)=   0.000000  celldm(3)=   0.000000
     celldm(4)=   0.000000  celldm(5)=   0.000000  celldm(6)=   0.000000

     crystal axes: (cart. coord. in units of alat)
               a(1) = (   1.000000   0.000000   0.000000 )
               a(2) = (  -0.500000   0.866025   0.000000 )
               a(3) = (   0.000000   0.000000   2.518768 )

     reciprocal axes: (cart. coord. in units 2 pi/alat)
               b(1) = (  1.000000  0.577350 -0.000000 )
               b(2) = (  0.000000  1.154701  0.000000 )
               b(3) = (  0.000000 -0.000000  0.397019 )

     PseudoPot. # 1 for Ni read from file:
     /home/mc7/quantum-expresso/espresso-5.2.1/pseudo/Ni.pz-nd-rrkjus.UPF
     MD5 check sum: bf64e4f20c74808dea28321d1ca350c3
     Pseudo is Ultrasoft + core correction, Zval = 10.0
     Generated by new atomic code, or converted to UPF format
     Using radial grid of 1203 points,  6 beta functions with:
                l(1) =   0
                l(2) =   0
                l(3) =   1
                l(4) =   1
                l(5) =   2
                l(6) =   2
     Q(r) pseudized with 0 coefficients

     PseudoPot. # 2 for Pt read from file:
     /home/mc7/quantum-expresso/espresso-5.2.1/pseudo/Pt.pz-nd-rrkjus.UPF
     MD5 check sum: c2503ea91035b823041fef6b1823f525
     Pseudo is Ultrasoft + core correction, Zval = 10.0
     Generated by new atomic code, or converted to UPF format
     Using radial grid of 1547 points,  3 beta functions with:
                l(1) =   1
                l(2) =   2
                l(3) =   2
     Q(r) pseudized with 0 coefficients

     PseudoPot. # 3 for Zr read from file:
     /home/mc7/quantum-expresso/espresso-5.2.1/pseudo/Zr.blyp-sp-hgh.UPF
     MD5 check sum: a52b0bda28b99d43395ef1dd0d020438
     Pseudo is Norm-conserving, Zval = 12.0
     Generated in analytical, separable form
     Using radial grid of 1225 points,  6 beta functions with:
                l(1) =   0
                l(2) =   0
                l(3) =   1
                l(4) =   1
                l(5) =   2
                l(6) =   2

     atomic species   valence    mass     pseudopotential
        Ni            10.00    58.69340     Ni( 1.00)
        Pt            10.00   195.07800     Pt( 1.00)
        Zr            12.00    91.22400     Zr( 1.00)

     No symmetry found

   Cartesian axes

     site n.     atom                  positions (alat units)
         1           Zr  tau(   1) = (   0.2511034   0.1449746   0.1999868  )
         2           Zr  tau(   2) = (   0.7511034   0.1449746   0.1999868  )
         3           Zr  tau(   3) = (   0.0011034   0.5779873   0.1999868  )
         4           Zr  tau(   4) = (   0.5011034   0.5779873   0.1999868  )
         5           Pt  tau(   5) = (   0.0011034   0.2880381   0.5999604  )
         6           Zr  tau(   6) = (   0.5011034   0.2880381   0.5999604  )
         7           Zr  tau(   7) = (  -0.2488966   0.7210508   0.5999604  )
         8           Pt  tau(   8) = (   0.2511034   0.7210508   0.5999604  )
         9           Ni  tau(   9) = (  -0.0000028   0.0000025   0.9424573  )
        10           Ni  tau(  10) = (   0.3571401   0.1237204   0.9424573  )
        11           Ni  tau(  11) = (   0.7142829   0.2474383   0.9424573  )
        12           Ni  tau(  12) = (   0.0714258   0.3711562   0.9424573  )
        13           Ni  tau(  13) = (   0.4285686   0.4948741   0.9424573  )
        14           Ni  tau(  14) = (  -0.2142885   0.6185921   0.9424573  )
        15           Ni  tau(  15) = (   0.1428543   0.7423100   0.9424573  )

     number of k points=    36  gaussian smearing, width (Ry)=  0.0020
                       cart. coord. in units 2pi/alat
        k(    1) = (   0.0000000   0.0000000   0.0000000), wk =   0.0312500
        k(    2) = (   0.0000000   0.0000000   0.0992549), wk =   0.0625000
        k(    3) = (   0.0000000   0.0000000  -0.1985097), wk =   0.0312500
        k(    4) = (   0.0000000   0.2886751   0.0000000), wk =   0.0625000
        k(    5) = (   0.0000000   0.2886751   0.0992549), wk =   0.0625000
        k(    6) = (   0.0000000   0.2886751  -0.1985097), wk =   0.0625000
        k(    7) = (   0.0000000  -0.5773503   0.0000000), wk =   0.0312500
        k(    8) = (   0.0000000  -0.5773503   0.0992549), wk =   0.0625000
        k(    9) = (   0.0000000  -0.5773503  -0.1985097), wk =   0.0312500
        k(   10) = (   0.2500000   0.4330127   0.0000000), wk =   0.0625000
        k(   11) = (   0.2500000   0.4330127   0.0992549), wk =   0.0625000
        k(   12) = (   0.2500000   0.4330127  -0.1985097), wk =   0.0625000
        k(   13) = (  -0.2500000   0.1443376   0.0000000), wk =   0.0625000
        k(   14) = (   0.2500000   0.1443376   0.0000000), wk =   0.0625000
        k(   15) = (   0.0000000  -0.2886751   0.0992549), wk =   0.0625000
        k(   16) = (  -0.2500000   0.1443376   0.0992549), wk =   0.0625000
        k(   17) = (   0.2500000   0.1443376   0.0992549), wk =   0.0625000
        k(   18) = (  -0.2500000  -0.1443376   0.0992549), wk =   0.0625000
        k(   19) = (   0.2500000  -0.1443376   0.0992549), wk =   0.0625000
        k(   20) = (  -0.2500000   0.1443376  -0.1985097), wk =   0.0625000
        k(   21) = (   0.2500000   0.1443376  -0.1985097), wk =   0.0625000
        k(   22) = (   0.5000000  -0.2886751   0.0000000), wk =   0.0312500
        k(   23) = (  -0.5000000  -0.2886751   0.0000000), wk =   0.0312500
        k(   24) = (   0.5000000  -0.2886751   0.0992549), wk =   0.0625000
        k(   25) = (  -0.5000000  -0.2886751   0.0992549), wk =   0.0625000
        k(   26) = (   0.5000000  -0.2886751  -0.1985097), wk =   0.0312500
        k(   27) = (  -0.5000000  -0.2886751  -0.1985097), wk =   0.0312500
        k(   28) = (  -0.2500000   0.4330127   0.0000000), wk =   0.0625000
        k(   29) = (   0.5000000   0.0000000   0.0000000), wk =   0.0625000
        k(   30) = (  -0.2500000  -0.4330127   0.0992549), wk =   0.0625000
        k(   31) = (  -0.2500000   0.4330127  -0.0992549), wk =   0.0625000
        k(   32) = (   0.2500000  -0.4330127  -0.0992549), wk =   0.0625000
        k(   33) = (   0.5000000   0.0000000   0.0992549), wk =   0.0625000
        k(   34) = (  -0.5000000   0.0000000   0.0992549), wk =   0.0625000
        k(   35) = (  -0.2500000   0.4330127   0.1985097), wk =   0.0625000
        k(   36) = (   0.5000000   0.0000000  -0.1985097), wk =   0.0625000

     Largest allocated arrays     est. size (Mb)     dimensions
     Largest temporary arrays     est. size (Mb)     dimensions

     Check: negative/imaginary core charge=   -0.000178    0.000000

     The initial density is read from file :
     /home/mc7/quantum-expresso/Zr_Pt2_Ni/calc.save/charge-density.dat

     negative rho (up, down):  3.317E-01 0.000E+00
     Starting wfc from file

     Self-consistent Calculation

     iteration #  1     ecut=    40.00 Ry     beta=0.70
     Davidson diagonalization with overlap
     c_bands:  1 eigenvalues not converged
     c_bands:  1 eigenvalues not converged
     c_bands:  1 eigenvalues not converged
     c_bands:  1 eigenvalues not converged
     c_bands:  1 eigenvalues not converged
     c_bands:  1 eigenvalues not converged
     ethr =  1.00E-05,  avg # of iterations = 15.9

     negative rho (up, down):  3.558E-01 0.000E+00

     total energy              =   -1285.77995826 Ry
     Harris-Foulkes estimate   =   -1340.50840769 Ry
     estimated scf accuracy    <      62.31073264 Ry

     iteration #  2     ecut=    40.00 Ry     beta=0.70
     Davidson diagonalization with overlap
     ethr =  1.00E-02,  avg # of iterations =  7.0

[...]

     total energy              =   -1335.46283861 Ry
     Harris-Foulkes estimate   =   -1335.46283964 Ry
     estimated scf accuracy    <       0.00001647 Ry

     iteration # 82     ecut=    40.00 Ry     beta=0.70
     Davidson diagonalization with overlap
     ethr =  6.33E-10,  avg # of iterations =  2.0

     negative rho (up, down):  3.543E-01 0.000E+00

     End of self-consistent calculation

          k = 0.0000 0.0000 0.0000 ( 16765 PWs)   bands (ev):

   -46.1131 -46.0630 -46.0428 -45.9862 -45.9038 -45.8688 -24.1364 -24.1283
   -24.0881 -24.0392 -23.9983 -23.9135 -23.8955 -23.7281 -23.7079 -23.6344
   -23.6146 -23.5627 -23.5408 -23.5106 -23.4915 -23.4789 -23.3377 -23.2828
    -3.5222  -1.5526  -1.1031  -0.7797  -0.7075  -0.6535  -0.6116  -0.5489
    -0.4900  -0.2640  -0.0620   0.2251   0.3535   0.3834   0.4240   0.4661
     0.5475   0.7105   0.9174   1.0874   1.2019   1.2197   1.2732   1.3527
     1.4439   1.5590   1.5667   1.6466   1.6788   1.7075   1.7356   1.7467
     1.7575   1.8029   1.8813   1.9067   1.9845   2.0191   2.2123   2.2550
     2.2934   2.3954   2.4804   2.5875   2.6593   2.7411   2.7709   2.8172
     2.8408   2.8775   3.0093   3.0283   3.1448   3.2978   3.3224   3.4221
     3.4470   3.8900   3.9483   4.0089   4.0620   4.0804   4.1327   4.1690
     4.2126   4.3753   4.4088   4.7267   4.7991   5.0050   5.1145   5.4053
     5.7655

[...]

          k =-0.2500 0.1443 0.0000 ( 16737 PWs)   bands (ev):

[...]

          k =-0.2500 0.4330 0.1985 ( 16766 PWs)   bands (ev):

[...]

          k = 0.5000 0.0000-0.1985 ( 16766 PWs)   bands (ev):

   -46.0978 -46.0716 -46.0403 -45.9929 -45.9055 -45.8752 -24.0266 -24.0050
   -23.9793 -23.9471 -23.9176 -23.8858 -23.8695 -23.8011 -23.7148 -23.6832
   -23.6522 -23.6418 -23.6130 -23.5591 -23.5281 -23.4950 -23.4747 -23.3582
    -2.6201  -1.6261  -1.4718  -0.6298  -0.5431  -0.4510  -0.3116  -0.2122
    -0.1742  -0.0184   0.0864   0.1350   0.1847   0.2533   0.3666   0.5232
     0.7383   0.7610   0.9316   1.0079   1.0973   1.1307   1.2036   1.2836
     1.3796   1.4346   1.5365   1.5977   1.6416   1.6860   1.7261   1.8317
     1.9061   1.9869   2.0260   2.1135   2.1605   2.2381   2.2931   2.3964
     2.4752   2.5502   2.5732   2.6140   2.6751   2.7400   2.7777   2.8539
     2.8934   2.9126   2.9503   2.9686   3.0330   3.0730   3.1026   3.1405
     3.2651   3.3714   3.4151   3.4399   3.6016   3.6796   3.7581   3.8317
     4.0925   4.1569   4.3049   4.6320   4.6984   4.7951   5.0357   5.1557
     5.5606

     the Fermi energy is     3.3722 ev

!    total energy              =   -1335.46283841 Ry
     Harris-Foulkes estimate   =   -1335.46283916 Ry
     estimated scf accuracy    <       0.00000078 Ry

     The total energy is the sum of the following terms:

     one-electron contribution =   -4419.96224782 Ry
     hartree contribution      =    2292.37485825 Ry
     xc contribution           =    -367.40749396 Ry
     ewald contribution        =    1159.53289642 Ry
     smearing contrib. (-TS)   =      -0.00085129 Ry

     convergence has been achieved in  82 iterations

     Writing output data file calc.save

     General routines

     Parallel routines

   This run was terminated on:  14:34:41  13Dec2015

   JOB DONE.